100
32
28
10
8
25
15
21
25
8
9
10
9
15
8
12
17
9
14
18
1
2
1
2
1
3
2
1
2
1
16
2
1
1
2
3
17
2
11
2
21
1
3
2
3
6
17
6
4
2
1
2
1
5
18
1
2
3
4
1
1
3
17
3
6
24
2
3
1
1
2
18
6
2
1
1
2
4
1
2
1
2
19
3
1
1
1
2
2
1
17
2
1
2
5
19
3
3
2
3
2
1